150 8133484

85 62 6 20 74 57 5 106 113 118 31 14 149 102 9 142 38
128 147 139 13 41 83 145 121 91 67 29 125 98 120 2 35 53
95 52 130 122 8 70 89 84 49 117 17 18 107 109 69 19 76
33 56 12 28 100 16 94 43 119 93 87 39 51 126 23 132 134
1 143 141 32 88 136 34 25 92 64 96 36 131 114 3 90 146
58 63 42 10 127 99 4 133 123 71 101 40 150 80 79 104 66
97 86 47 24 82 22 59 48 55 144 135 45 54 61 46 44 72
112 15 81 68 116 37 108 140 103 78 75 30 138 105 124 21 137
7 73 11 26 129 77 50 27 115 65 111 110 148 60
